# Random Circle Problem
param d := 0.05; 
param n := 10; 
param radius := 2.00; 
param v0 := 
1 5.10
2 5.92
3 5.47
4 5.49
5 5.09
6 5.05
7 5.94
8 5.86
9 5.74
10 5.59
;
param cap := 
1 2.70037
2 3.53049
3 4.06389
4 4.91796
5 5.81083
6 0.15793
7 0.48530
8 0.86215
9 1.91956
10 2.33475
;
param x0 := 
1 2.00
2 1.62
3 0.62
4 -0.62
5 -1.62
6 -2.00
7 -1.62
8 -0.62
9 0.62
10 1.62
;
param y0 := 
1 -0.00
2 1.18
3 1.90
4 1.90
5 1.18
6 0.00
7 -1.18
8 -1.90
9 -1.90
10 -1.18
;
